lab2/lab2B.out
x :=
1 A   30
1 B    0
1 C    0
2 A    0
2 B   40
2 C   20
;

s [*] :=
1  30
2  60
;

total_value = 570

